num_servers = 12;
sid = [0, 1, 2, 3, 4, 5, 6, 7, 8, 9, 10, 11];
scpu = [5, 5, 5, 5, 5, 2, 5, 5, 5, 5, 5, 2];
sram = [6, 12, 9, 9, 2, 4, 9, 5, 6, 10, 6, 4];

num_vms = 36;
vjob = [0, 1, 2, 3, 3, 3, 4, 5, 6, 6, 7, 7, 8, 8, 8, 8, 8, 8, 8, 9, 10, 11, 12, 13, 13, 13, 13, 14, 15, 16, 17, 18, 19, 19, 19, 19];
vindex = [0, 0, 0, 0, 1, 2, 0, 0, 0, 1, 0, 1, 0, 1, 2, 3, 4, 5, 6, 0, 0, 0, 0, 0, 1, 2, 3, 0, 0, 0, 0, 0, 0, 1, 2, 3];
vcpu = [1, 1, 2, 1, 1, 1, 1, 1, 1, 1, 1, 1, 1, 1, 1, 1, 2, 1, 1, 1, 1, 1, 1, 1, 1, 1, 1, 1, 1, 1, 1, 1, 1, 1, 1, 1];
vram = [1, 1, 2, 1, 1, 1, 1, 1, 1, 3, 4, 5, 1, 1, 1, 1, 1, 1, 1, 1, 1, 1, 1, 3, 1, 1, 1, 1, 1, 1, 1, 1, 1, 1, 1, 1];
vac = [true, true, true, true, true, true, true, true, true, true, true, true, true, true, true, true, true, true, true, true, true, true, true, true, true, true, true, true, true, true, true, true, true, true, true, true];
